GLPSOL--GLPK LP/MIP Solver 5.0
Parameter(s) specified in the command line:
 --cpxlp --first inputs/new_tr/order/jump_3_25_default_input.lp -o solutions/new_tr/jump_3_25_default_input.lp
Reading problem data from 'inputs/new_tr/order/jump_3_25_default_input.lp'...
inputs/new_tr/order/jump_3_25_default_input.lp:2978: warning: lower bound of variable 'm_1_1' redefined
inputs/new_tr/order/jump_3_25_default_input.lp:2978: warning: upper bound of variable 'm_1_1' redefined
2794 rows, 1276 columns, 8264 non-zeros
1276 integer variables, 1099 of which are binary
4228 lines were read
GLPK Integer Optimizer 5.0
2794 rows, 1276 columns, 8264 non-zeros
1276 integer variables, 1099 of which are binary
Preprocessing...
80 hidden packing inequaliti(es) were detected
157 hidden covering inequaliti(es) were detected
454 constraint coefficient(s) were reduced
2300 rows, 972 columns, 6573 non-zeros
972 integer variables, 946 of which are binary
Scaling...
 A: min|aij| =  1.000e+00  max|aij| =  1.024e+04  ratio =  1.024e+04
GM: min|aij| =  4.450e-01  max|aij| =  2.247e+00  ratio =  5.049e+00
EQ: min|aij| =  1.996e-01  max|aij| =  1.000e+00  ratio =  5.010e+00
2N: min|aij| =  1.250e-01  max|aij| =  1.438e+00  ratio =  1.150e+01
Constructing initial basis...
Size of triangular part is 2073
Solving LP relaxation...
GLPK Simplex Optimizer 5.0
2300 rows, 972 columns, 6573 non-zeros
      0: obj =   2.764800000e+04 inf =   2.649e+02 (163)
    690: obj =   4.524481893e+04 inf =   5.026e-14 (0) 6
*  1294: obj =   3.172761600e+04 inf =   1.096e-15 (0) 6
OPTIMAL LP SOLUTION FOUND
Integer optimization begins...
Long-step dual simplex will be used
+  1294: mip =     not found yet >=              -inf        (1; 0)
+  7234: >>>>>   7.168000000e+04 >=   3.172800000e+04  55.7% (31; 0)
Solution found by heuristic: 56320
+ 37134: mip =   5.632000000e+04 >=   3.209600000e+04  43.0% (85; 36)
+ 54739: >>>>>   5.222400000e+04 >=   3.238500000e+04  38.0% (130; 45)
+ 58864: >>>>>   5.120000000e+04 >=   3.243000000e+04  36.7% (131; 102)
+ 86530: >>>>>   5.017600000e+04 >=   3.277700000e+04  34.7% (202; 125)
+ 87734: >>>>>   4.710400000e+04 >=   3.279500000e+04  30.4% (213; 130)
+119253: mip =   4.710400000e+04 >=   3.305200000e+04  29.8% (261; 187)
+150281: mip =   4.710400000e+04 >=   3.320500000e+04  29.5% (348; 207)
+182066: mip =   4.710400000e+04 >=   3.363600000e+04  28.6% (426; 236)
+213696: mip =   4.710400000e+04 >=   3.379200000e+04  28.3% (495; 256)
+244621: mip =   4.710400000e+04 >=   3.400700000e+04  27.8% (560; 288)
+275525: mip =   4.710400000e+04 >=   3.437700000e+04  27.0% (629; 320)
+307460: mip =   4.710400000e+04 >=   3.474100000e+04  26.2% (705; 355)
+308099: >>>>>   4.505600000e+04 >=   3.474100000e+04  22.9% (719; 355)
+342400: mip =   4.505600000e+04 >=   3.481600000e+04  22.7% (711; 641)
+376961: mip =   4.505600000e+04 >=   3.481600000e+04  22.7% (807; 684)
Time used: 60.0 secs.  Memory used: 9.8 Mb.
+408605: mip =   4.505600000e+04 >=   3.507700000e+04  22.1% (863; 744)
+443209: mip =   4.505600000e+04 >=   3.528600000e+04  21.7% (966; 792)
+476070: mip =   4.505600000e+04 >=   3.558200000e+04  21.0% (1018; 858)
+509349: mip =   4.505600000e+04 >=   3.583000000e+04  20.5% (1084; 919)
+542472: mip =   4.505600000e+04 >=   3.584000000e+04  20.5% (1192; 953)
+575561: mip =   4.505600000e+04 >=   3.584000000e+04  20.5% (1264; 1004)
+607597: mip =   4.505600000e+04 >=   3.584000000e+04  20.5% (1342; 1042)
+636974: mip =   4.505600000e+04 >=   3.585300000e+04  20.4% (1383; 1105)
+669582: mip =   4.505600000e+04 >=   3.620500000e+04  19.6% (1392; 1241)
+703160: mip =   4.505600000e+04 >=   3.635700000e+04  19.3% (1453; 1304)
+735214: mip =   4.505600000e+04 >=   3.647100000e+04  19.1% (1474; 1375)
+768732: mip =   4.505600000e+04 >=   3.668800000e+04  18.6% (1521; 1452)
Time used: 120.0 secs.  Memory used: 18.2 Mb.
+803379: mip =   4.505600000e+04 >=   3.686400000e+04  18.2% (1576; 1561)
+835626: mip =   4.505600000e+04 >=   3.693000000e+04  18.0% (1600; 1627)
+869153: mip =   4.505600000e+04 >=   3.706600000e+04  17.7% (1656; 1701)
+902908: mip =   4.505600000e+04 >=   3.710500000e+04  17.6% (1753; 1767)
+939329: mip =   4.505600000e+04 >=   3.725900000e+04  17.3% (1850; 1879)
+973545: mip =   4.505600000e+04 >=   3.749900000e+04  16.8% (1928; 2019)
+1004199: mip =   4.505600000e+04 >=   3.757100000e+04  16.6% (2000; 2111)
+1038606: mip =   4.505600000e+04 >=   3.776000000e+04  16.2% (2117; 2191)
+1075023: mip =   4.505600000e+04 >=   3.788900000e+04  15.9% (2258; 2304)
+1107756: mip =   4.505600000e+04 >=   3.797900000e+04  15.7% (2292; 2391)
+1141028: mip =   4.505600000e+04 >=   3.815200000e+04  15.3% (2358; 2484)
Time used: 180.0 secs.  Memory used: 26.9 Mb.
+1178416: mip =   4.505600000e+04 >=   3.820600000e+04  15.2% (2456; 2595)
+1215070: mip =   4.505600000e+04 >=   3.825900000e+04  15.1% (2622; 2668)
+1254861: mip =   4.505600000e+04 >=   3.833000000e+04  14.9% (2788; 2791)
+1293496: mip =   4.505600000e+04 >=   3.845100000e+04  14.7% (2930; 2989)
+1330804: mip =   4.505600000e+04 >=   3.852700000e+04  14.5% (3108; 3163)
+1367369: mip =   4.505600000e+04 >=   3.861800000e+04  14.3% (3248; 3298)
+1404350: mip =   4.505600000e+04 >=   3.873500000e+04  14.0% (3479; 3467)
+1440852: mip =   4.505600000e+04 >=   3.883300000e+04  13.8% (3573; 3730)
+1478186: mip =   4.505600000e+04 >=   3.891200000e+04  13.6% (3672; 3926)
+1511994: mip =   4.505600000e+04 >=   3.891200000e+04  13.6% (3694; 4082)
+1545947: mip =   4.505600000e+04 >=   3.891200000e+04  13.6% (3737; 4226)
+1582083: mip =   4.505600000e+04 >=   3.904700000e+04  13.3% (3715; 4498)
Time used: 240.0 secs.  Memory used: 38.6 Mb.
+1617694: mip =   4.505600000e+04 >=   3.921900000e+04  13.0% (3816; 4740)
+1654080: mip =   4.505600000e+04 >=   3.935000000e+04  12.7% (3941; 4993)
+1688919: mip =   4.505600000e+04 >=   3.935000000e+04  12.7% (4347; 5123)
+1723808: mip =   4.505600000e+04 >=   3.938900000e+04  12.6% (4745; 5274)
+1759372: mip =   4.505600000e+04 >=   3.941700000e+04  12.5% (4952; 5398)
+1794007: mip =   4.505600000e+04 >=   3.975500000e+04  11.8% (4914; 5959)
+1829559: mip =   4.505600000e+04 >=   3.993600000e+04  11.4% (4959; 6452)
+1867899: mip =   4.505600000e+04 >=   3.993600000e+04  11.4% (5027; 6621)
+1900757: mip =   4.505600000e+04 >=   4.005600000e+04  11.1% (5043; 6942)
+1938160: mip =   4.505600000e+04 >=   4.015400000e+04  10.9% (5066; 7139)
+1972896: mip =   4.505600000e+04 >=   4.030400000e+04  10.5% (5062; 7363)
+2006442: mip =   4.505600000e+04 >=   4.039500000e+04  10.3% (5038; 7580)
Time used: 300.0 secs.  Memory used: 45.2 Mb.
+2038721: mip =   4.505600000e+04 >=   4.047400000e+04  10.2% (4797; 8041)
+2072489: mip =   4.505600000e+04 >=   4.072200000e+04   9.6% (4746; 8375)
+2107181: mip =   4.505600000e+04 >=   4.096000000e+04   9.1% (4830; 8714)
+2147205: mip =   4.505600000e+04 >=   4.096000000e+04   9.1% (5073; 9030)
+2186549: mip =   4.505600000e+04 >=   4.096000000e+04   9.1% (5197; 9419)
+2222468: mip =   4.505600000e+04 >=   4.096000000e+04   9.1% (5285; 9697)
+2258174: mip =   4.505600000e+04 >=   4.096000000e+04   9.1% (5346; 9887)
+2293087: mip =   4.505600000e+04 >=   4.096000000e+04   9.1% (5394; 10006)
+2328902: mip =   4.505600000e+04 >=   4.096000000e+04   9.1% (5451; 10133)
+2364501: mip =   4.505600000e+04 >=   4.096000000e+04   9.1% (5515; 10256)
+2401355: mip =   4.505600000e+04 >=   4.096000000e+04   9.1% (5581; 10396)
+2437537: mip =   4.505600000e+04 >=   4.125900000e+04   8.4% (5591; 10981)
Time used: 360.0 secs.  Memory used: 53.3 Mb.
+2474866: mip =   4.505600000e+04 >=   4.144200000e+04   8.0% (5741; 11349)
+2513659: mip =   4.505600000e+04 >=   4.144900000e+04   8.0% (6049; 11581)
+2552395: mip =   4.505600000e+04 >=   4.153700000e+04   7.8% (6477; 11853)
+2590427: mip =   4.505600000e+04 >=   4.153700000e+04   7.8% (7011; 12062)
+2631299: mip =   4.505600000e+04 >=   4.153700000e+04   7.8% (7563; 12257)
+2672405: mip =   4.505600000e+04 >=   4.153700000e+04   7.8% (8140; 12417)
+2712010: mip =   4.505600000e+04 >=   4.153700000e+04   7.8% (8675; 12608)
+2751738: mip =   4.505600000e+04 >=   4.153700000e+04   7.8% (9216; 12796)
+2790132: mip =   4.505600000e+04 >=   4.156600000e+04   7.7% (9555; 13064)
+2828727: mip =   4.505600000e+04 >=   4.156600000e+04   7.7% (9857; 13328)
+2864876: mip =   4.505600000e+04 >=   4.156600000e+04   7.7% (10195; 13646)
+2899640: mip =   4.505600000e+04 >=   4.159500000e+04   7.7% (10334; 14037)
Time used: 420.0 secs.  Memory used: 80.1 Mb.
+2936356: mip =   4.505600000e+04 >=   4.159500000e+04   7.7% (10612; 14334)
+2972004: mip =   4.505600000e+04 >=   4.159500000e+04   7.7% (10858; 14653)
+3008166: mip =   4.505600000e+04 >=   4.159500000e+04   7.7% (11151; 14961)
+3045889: mip =   4.505600000e+04 >=   4.159500000e+04   7.7% (11429; 15241)
+3081273: mip =   4.505600000e+04 >=   4.159500000e+04   7.7% (11724; 15541)
+3115865: mip =   4.505600000e+04 >=   4.159500000e+04   7.7% (11982; 15862)
+3149967: mip =   4.505600000e+04 >=   4.159500000e+04   7.7% (12285; 16180)
+3184352: mip =   4.505600000e+04 >=   4.159500000e+04   7.7% (12563; 16485)
+3218480: mip =   4.505600000e+04 >=   4.159500000e+04   7.7% (12848; 16792)
+3252954: mip =   4.505600000e+04 >=   4.159500000e+04   7.7% (13128; 17073)
+3287416: mip =   4.505600000e+04 >=   4.159500000e+04   7.7% (13422; 17364)
+3320765: mip =   4.505600000e+04 >=   4.159500000e+04   7.7% (13704; 17673)
Time used: 480.0 secs.  Memory used: 100.8 Mb.
+3354578: mip =   4.505600000e+04 >=   4.159500000e+04   7.7% (13962; 17994)
+3387206: mip =   4.505600000e+04 >=   4.159500000e+04   7.7% (14248; 18322)
+3421425: mip =   4.505600000e+04 >=   4.159500000e+04   7.7% (14491; 18597)
+3454199: mip =   4.505600000e+04 >=   4.159500000e+04   7.7% (14694; 18927)
+3488657: mip =   4.505600000e+04 >=   4.159500000e+04   7.7% (15055; 19181)
+3514953: mip =   4.505600000e+04 >=   4.160100000e+04   7.7% (15081; 19772)
+3535405: mip =   4.505600000e+04 >=   4.161300000e+04   7.6% (14992; 20419)
+3561678: mip =   4.505600000e+04 >=   4.162400000e+04   7.6% (14946; 20872)
+3592591: mip =   4.505600000e+04 >=   4.163100000e+04   7.6% (14804; 21360)
+3607367: mip =   4.505600000e+04 >=   4.164300000e+04   7.6% (14388; 22006)
+3628186: mip =   4.505600000e+04 >=   4.165300000e+04   7.6% (14140; 22859)
+3647453: mip =   4.505600000e+04 >=   4.169000000e+04   7.5% (13827; 23803)
Time used: 540.0 secs.  Memory used: 113.9 Mb.
+3665261: mip =   4.505600000e+04 >=   4.170400000e+04   7.4% (13675; 24569)
+3695351: mip =   4.505600000e+04 >=   4.173300000e+04   7.4% (13645; 24973)
+3728433: mip =   4.505600000e+04 >=   4.173900000e+04   7.4% (13564; 25283)
+3748792: mip =   4.505600000e+04 >=   4.175400000e+04   7.3% (13142; 26303)
+3778174: mip =   4.505600000e+04 >=   4.179000000e+04   7.2% (13143; 26745)
+3812475: mip =   4.505600000e+04 >=   4.180100000e+04   7.2% (13188; 27011)
+3838984: mip =   4.505600000e+04 >=   4.188700000e+04   7.0% (13182; 27636)
+3863831: mip =   4.505600000e+04 >=   4.198400000e+04   6.8% (13047; 28312)
+3892772: mip =   4.505600000e+04 >=   4.198400000e+04   6.8% (13100; 28843)
+3919289: mip =   4.505600000e+04 >=   4.198400000e+04   6.8% (13091; 29468)
+3945626: mip =   4.505600000e+04 >=   4.198400000e+04   6.8% (13121; 30152)
+3975266: mip =   4.505600000e+04 >=   4.198400000e+04   6.8% (13249; 30661)
Time used: 600.1 secs.  Memory used: 120.9 Mb.
+4005267: mip =   4.505600000e+04 >=   4.198400000e+04   6.8% (13393; 31158)
+4035176: mip =   4.505600000e+04 >=   4.198400000e+04   6.8% (13511; 31632)
+4065212: mip =   4.505600000e+04 >=   4.198400000e+04   6.8% (13667; 32100)
+4095000: mip =   4.505600000e+04 >=   4.198400000e+04   6.8% (13814; 32532)
+4125701: mip =   4.505600000e+04 >=   4.198400000e+04   6.8% (13913; 32767)
+4159316: mip =   4.505600000e+04 >=   4.198400000e+04   6.8% (13967; 32917)
+4193594: mip =   4.505600000e+04 >=   4.198400000e+04   6.8% (14025; 33050)
+4218971: mip =   4.505600000e+04 >=   4.201400000e+04   6.8% (13861; 33544)
+4234982: mip =   4.505600000e+04 >=   4.211600000e+04   6.5% (13447; 34856)
+4258762: mip =   4.505600000e+04 >=   4.220200000e+04   6.3% (13181; 35885)
+4283292: mip =   4.505600000e+04 >=   4.226900000e+04   6.2% (12964; 37299)
+4320486: mip =   4.505600000e+04 >=   4.228100000e+04   6.2% (13138; 37472)
Time used: 660.1 secs.  Memory used: 127.7 Mb.
+4354468: mip =   4.505600000e+04 >=   4.228400000e+04   6.2% (13275; 38120)
+4364530: mip =   4.505600000e+04 >=   4.236800000e+04   6.0% (12602; 40708)
+4401224: mip =   4.505600000e+04 >=   4.245700000e+04   5.8% (12606; 40973)
+4437576: mip =   4.505600000e+04 >=   4.245700000e+04   5.8% (12878; 41255)
+4474774: mip =   4.505600000e+04 >=   4.245700000e+04   5.8% (13214; 41516)
+4510735: mip =   4.505600000e+04 >=   4.245700000e+04   5.8% (13538; 41798)
+4545752: mip =   4.505600000e+04 >=   4.245700000e+04   5.8% (13810; 42084)
+4578538: mip =   4.505600000e+04 >=   4.245700000e+04   5.8% (14092; 42394)
+4611578: mip =   4.505600000e+04 >=   4.245700000e+04   5.8% (14372; 42691)
+4643452: mip =   4.505600000e+04 >=   4.245700000e+04   5.8% (14662; 42995)
+4677100: mip =   4.505600000e+04 >=   4.245700000e+04   5.8% (14942; 43257)
+4707430: mip =   4.505600000e+04 >=   4.245700000e+04   5.8% (15194; 43581)
Time used: 720.1 secs.  Memory used: 135.5 Mb.
+4737164: mip =   4.505600000e+04 >=   4.245700000e+04   5.8% (15469; 43899)
+4770032: mip =   4.505600000e+04 >=   4.245700000e+04   5.8% (15694; 44180)
+4800008: mip =   4.505600000e+04 >=   4.245700000e+04   5.8% (15949; 44491)
+4832195: mip =   4.505600000e+04 >=   4.245700000e+04   5.8% (16211; 44788)
+4861685: mip =   4.505600000e+04 >=   4.245700000e+04   5.8% (16448; 45132)
+4892409: mip =   4.505600000e+04 >=   4.245700000e+04   5.8% (16704; 45415)
+4918609: mip =   4.505600000e+04 >=   4.246500000e+04   5.8% (16816; 45797)
+4924975: mip =   4.505600000e+04 >=   4.249600000e+04   5.7% (16250; 46740)
+4944143: mip =   4.505600000e+04 >=   4.250700000e+04   5.7% (16065; 47798)
+4967660: mip =   4.505600000e+04 >=   4.252500000e+04   5.6% (16012; 48327)
+4989648: mip =   4.505600000e+04 >=   4.255500000e+04   5.6% (15965; 48942)
+5011741: mip =   4.505600000e+04 >=   4.256800000e+04   5.5% (15697; 49702)
Time used: 780.1 secs.  Memory used: 146.1 Mb.
+5035113: mip =   4.505600000e+04 >=   4.260900000e+04   5.4% (15731; 50431)
+5067786: mip =   4.505600000e+04 >=   4.260900000e+04   5.4% (16112; 50675)
+5099675: mip =   4.505600000e+04 >=   4.260900000e+04   5.4% (16548; 50917)
+5132235: mip =   4.505600000e+04 >=   4.260900000e+04   5.4% (17009; 51145)
+5164453: mip =   4.505600000e+04 >=   4.264900000e+04   5.3% (17265; 51425)
+5194751: mip =   4.505600000e+04 >=   4.268600000e+04   5.3% (17303; 51748)
+5224106: mip =   4.505600000e+04 >=   4.268600000e+04   5.3% (17543; 52032)
+5243834: mip =   4.505600000e+04 >=   4.271000000e+04   5.2% (17456; 53387)
+5251191: mip =   4.505600000e+04 >=   4.272400000e+04   5.2% (17003; 56075)
+5282605: mip =   4.505600000e+04 >=   4.277900000e+04   5.1% (17232; 56385)
+5305365: mip =   4.505600000e+04 >=   4.281600000e+04   5.0% (17290; 56787)
+5319367: mip =   4.505600000e+04 >=   4.286200000e+04   4.9% (16973; 58384)
Time used: 840.1 secs.  Memory used: 155.8 Mb.
+5342160: mip =   4.505600000e+04 >=   4.286200000e+04   4.9% (16924; 58906)
+5353112: mip =   4.505600000e+04 >=   4.291300000e+04   4.8% (16577; 59681)
+5372201: mip =   4.505600000e+04 >=   4.294800000e+04   4.7% (16452; 60522)
+5395465: mip =   4.505600000e+04 >=   4.298300000e+04   4.6% (16395; 61364)
+5420739: mip =   4.505600000e+04 >=   4.299900000e+04   4.6% (16281; 62040)
+5445174: mip =   4.505600000e+04 >=   4.300800000e+04   4.5% (16184; 62720)
+5460531: mip =   4.505600000e+04 >=   4.300800000e+04   4.5% (15915; 63863)
+5478162: mip =   4.505600000e+04 >=   4.300800000e+04   4.5% (15792; 64873)
+5497236: mip =   4.505600000e+04 >=   4.300800000e+04   4.5% (15702; 65821)
+5516131: mip =   4.505600000e+04 >=   4.300800000e+04   4.5% (15595; 66840)
+5536025: mip =   4.505600000e+04 >=   4.300800000e+04   4.5% (15458; 67882)
+5563160: mip =   4.505600000e+04 >=   4.300800000e+04   4.5% (15440; 68399)
Time used: 900.1 secs.  Memory used: 155.8 Mb.
+5592777: mip =   4.505600000e+04 >=   4.300800000e+04   4.5% (15417; 68785)
+5621343: mip =   4.505600000e+04 >=   4.300800000e+04   4.5% (15427; 69207)
+5649125: mip =   4.505600000e+04 >=   4.300800000e+04   4.5% (15430; 69676)
+5678333: mip =   4.505600000e+04 >=   4.300800000e+04   4.5% (15408; 70122)
+5706877: mip =   4.505600000e+04 >=   4.300800000e+04   4.5% (15426; 70600)
+5733324: mip =   4.505600000e+04 >=   4.300800000e+04   4.5% (15439; 71168)
+5760781: mip =   4.505600000e+04 >=   4.300800000e+04   4.5% (15452; 71671)
+5788741: mip =   4.505600000e+04 >=   4.300800000e+04   4.5% (15439; 72176)
+5817660: mip =   4.505600000e+04 >=   4.300800000e+04   4.5% (15425; 72653)
+5848379: mip =   4.505600000e+04 >=   4.300800000e+04   4.5% (15442; 73051)
+5877499: mip =   4.505600000e+04 >=   4.300800000e+04   4.5% (15442; 73472)
+5908190: mip =   4.505600000e+04 >=   4.300800000e+04   4.5% (15437; 73851)
Time used: 960.1 secs.  Memory used: 155.8 Mb.
+5937747: mip =   4.505600000e+04 >=   4.300800000e+04   4.5% (15463; 74233)
+5969393: mip =   4.505600000e+04 >=   4.300800000e+04   4.5% (15469; 74528)
+6002445: mip =   4.505600000e+04 >=   4.300800000e+04   4.5% (15503; 74735)
+6034495: mip =   4.505600000e+04 >=   4.300800000e+04   4.5% (15554; 74955)
+6065844: mip =   4.505600000e+04 >=   4.300800000e+04   4.5% (15561; 75266)
+6096253: mip =   4.505600000e+04 >=   4.300800000e+04   4.5% (15592; 75620)
+6125256: mip =   4.505600000e+04 >=   4.300800000e+04   4.5% (15629; 75980)
+6156248: mip =   4.505600000e+04 >=   4.300800000e+04   4.5% (15649; 76320)
+6187491: mip =   4.505600000e+04 >=   4.300800000e+04   4.5% (15661; 76613)
+6216887: mip =   4.505600000e+04 >=   4.300800000e+04   4.5% (15687; 76984)
+6247481: mip =   4.505600000e+04 >=   4.300800000e+04   4.5% (15686; 77325)
+6275846: mip =   4.505600000e+04 >=   4.300800000e+04   4.5% (15732; 77684)
Time used: 1020.1 secs.  Memory used: 156.1 Mb.
+6305178: mip =   4.505600000e+04 >=   4.300800000e+04   4.5% (15797; 77998)
+6334212: mip =   4.505600000e+04 >=   4.300800000e+04   4.5% (15880; 78294)
+6363783: mip =   4.505600000e+04 >=   4.300800000e+04   4.5% (15938; 78575)
+6391722: mip =   4.505600000e+04 >=   4.300800000e+04   4.5% (15975; 78933)
+6421667: mip =   4.505600000e+04 >=   4.300800000e+04   4.5% (16050; 79207)
+6452254: mip =   4.505600000e+04 >=   4.300800000e+04   4.5% (16095; 79461)
+6482165: mip =   4.505600000e+04 >=   4.300800000e+04   4.5% (16140; 79699)
+6512807: mip =   4.505600000e+04 >=   4.300800000e+04   4.5% (16200; 79898)
+6542451: mip =   4.505600000e+04 >=   4.300800000e+04   4.5% (16233; 80166)
+6570790: mip =   4.505600000e+04 >=   4.300800000e+04   4.5% (16251; 80524)
+6600851: mip =   4.505600000e+04 >=   4.300800000e+04   4.5% (16307; 80759)
+6630053: mip =   4.505600000e+04 >=   4.300800000e+04   4.5% (16316; 81071)
Time used: 1080.1 secs.  Memory used: 158.9 Mb.
+6660838: mip =   4.505600000e+04 >=   4.300800000e+04   4.5% (16354; 81294)
+6690053: mip =   4.505600000e+04 >=   4.300800000e+04   4.5% (16359; 81552)
+6721890: mip =   4.505600000e+04 >=   4.300800000e+04   4.5% (16414; 81730)
+6749055: mip =   4.505600000e+04 >=   4.300800000e+04   4.5% (16461; 82097)
+6779297: mip =   4.505600000e+04 >=   4.300800000e+04   4.5% (16497; 82326)
+6809512: mip =   4.505600000e+04 >=   4.300800000e+04   4.5% (16566; 82542)
+6838363: mip =   4.505600000e+04 >=   4.300800000e+04   4.5% (16584; 82813)
+6865571: mip =   4.505600000e+04 >=   4.300800000e+04   4.5% (16605; 83202)
+6893295: mip =   4.505600000e+04 >=   4.300800000e+04   4.5% (16658; 83510)
+6922776: mip =   4.505600000e+04 >=   4.300800000e+04   4.5% (16698; 83793)
+6950076: mip =   4.505600000e+04 >=   4.300800000e+04   4.5% (16723; 84182)
+6980009: mip =   4.505600000e+04 >=   4.300800000e+04   4.5% (16752; 84441)
Time used: 1140.1 secs.  Memory used: 163.1 Mb.
+7008947: mip =   4.505600000e+04 >=   4.300800000e+04   4.5% (16781; 84776)
+7038938: mip =   4.505600000e+04 >=   4.300800000e+04   4.5% (16816; 85013)
+7067425: mip =   4.505600000e+04 >=   4.300800000e+04   4.5% (16853; 85289)
+7096082: mip =   4.505600000e+04 >=   4.300800000e+04   4.5% (16919; 85544)
+7124774: mip =   4.505600000e+04 >=   4.300800000e+04   4.5% (16921; 85800)
+7153022: mip =   4.505600000e+04 >=   4.300800000e+04   4.5% (16977; 86115)
+7182033: mip =   4.505600000e+04 >=   4.300800000e+04   4.5% (17040; 86391)
+7211143: mip =   4.505600000e+04 >=   4.300800000e+04   4.5% (17078; 86707)
+7239618: mip =   4.505600000e+04 >=   4.300800000e+04   4.5% (17132; 86937)
+7269762: mip =   4.505600000e+04 >=   4.300800000e+04   4.5% (17176; 87176)
+7300661: mip =   4.505600000e+04 >=   4.300800000e+04   4.5% (17210; 87359)
+7330030: mip =   4.505600000e+04 >=   4.300800000e+04   4.5% (17257; 87557)
Time used: 1200.1 secs.  Memory used: 168.8 Mb.
+7357050: mip =   4.505600000e+04 >=   4.300800000e+04   4.5% (17277; 87873)
+7382698: mip =   4.505600000e+04 >=   4.300800000e+04   4.5% (17289; 88238)
+7413211: mip =   4.505600000e+04 >=   4.300800000e+04   4.5% (17341; 88454)
+7443415: mip =   4.505600000e+04 >=   4.300800000e+04   4.5% (17345; 88575)
+7472676: mip =   4.505600000e+04 >=   4.300800000e+04   4.5% (17377; 88659)
+7499059: mip =   4.505600000e+04 >=   4.300800000e+04   4.5% (17436; 88965)
+7527209: mip =   4.505600000e+04 >=   4.300800000e+04   4.5% (17479; 89249)
+7557197: mip =   4.505600000e+04 >=   4.300800000e+04   4.5% (17538; 89479)
+7585819: mip =   4.505600000e+04 >=   4.300800000e+04   4.5% (17564; 89716)
+7615007: mip =   4.505600000e+04 >=   4.300800000e+04   4.5% (17602; 89993)
+7643794: mip =   4.505600000e+04 >=   4.300800000e+04   4.5% (17655; 90214)
+7671207: mip =   4.505600000e+04 >=   4.300800000e+04   4.5% (17705; 90504)
Time used: 1260.2 secs.  Memory used: 174.3 Mb.
+7699078: mip =   4.505600000e+04 >=   4.300800000e+04   4.5% (17741; 90786)
+7728723: mip =   4.505600000e+04 >=   4.300800000e+04   4.5% (17790; 91012)
+7756782: mip =   4.505600000e+04 >=   4.300800000e+04   4.5% (17838; 91254)
+7785690: mip =   4.505600000e+04 >=   4.300800000e+04   4.5% (17896; 91526)
+7814931: mip =   4.505600000e+04 >=   4.300800000e+04   4.5% (17931; 91769)
+7844603: mip =   4.505600000e+04 >=   4.300800000e+04   4.5% (17987; 92001)
+7873159: mip =   4.505600000e+04 >=   4.300900000e+04   4.5% (17996; 92250)
+7900939: mip =   4.505600000e+04 >=   4.303500000e+04   4.5% (17921; 92670)
+7921988: mip =   4.505600000e+04 >=   4.307000000e+04   4.4% (17811; 93214)
+7943663: mip =   4.505600000e+04 >=   4.307600000e+04   4.4% (17640; 93615)
+7957285: mip =   4.505600000e+04 >=   4.310600000e+04   4.3% (17281; 94546)
+7966572: mip =   4.505600000e+04 >=   4.314400000e+04   4.2% (16884; 95537)
Time used: 1320.2 secs.  Memory used: 179.1 Mb.
+7986758: mip =   4.505600000e+04 >=   4.318100000e+04   4.2% (16663; 96244)
+8007321: mip =   4.505600000e+04 >=   4.321300000e+04   4.1% (16587; 96806)
+8032179: mip =   4.505600000e+04 >=   4.321300000e+04   4.1% (16664; 97175)
+8050161: mip =   4.505600000e+04 >=   4.322400000e+04   4.1% (16557; 97663)
+8068939: mip =   4.505600000e+04 >=   4.327000000e+04   4.0% (16474; 98378)
+8084709: mip =   4.505600000e+04 >=   4.329500000e+04   3.9% (16275; 99619)
+8116956: mip =   4.505600000e+04 >=   4.330500000e+04   3.9% (16531; 99865)
+8144251: mip =   4.505600000e+04 >=   4.331600000e+04   3.9% (16595; 100346)
+8179671: mip =   4.505600000e+04 >=   4.331600000e+04   3.9% (16800; 100502)
+8214533: mip =   4.505600000e+04 >=   4.331600000e+04   3.9% (16999; 100674)
+8247783: mip =   4.505600000e+04 >=   4.332500000e+04   3.8% (17130; 100787)
+8271545: mip =   4.505600000e+04 >=   4.337900000e+04   3.7% (17062; 101320)
Time used: 1380.2 secs.  Memory used: 183.3 Mb.
+8304517: mip =   4.505600000e+04 >=   4.339500000e+04   3.7% (17285; 101604)
+8340401: mip =   4.505600000e+04 >=   4.339600000e+04   3.7% (17590; 101806)
+8362578: mip =   4.505600000e+04 >=   4.341300000e+04   3.6% (17581; 102672)
+8391797: mip =   4.505600000e+04 >=   4.341800000e+04   3.6% (17848; 102977)
+8415540: mip =   4.505600000e+04 >=   4.342900000e+04   3.6% (18016; 103325)
+8437077: mip =   4.505600000e+04 >=   4.348200000e+04   3.5% (17815; 104113)
+8460016: mip =   4.505600000e+04 >=   4.352000000e+04   3.4% (17621; 104837)
+8460738: mip =   4.505600000e+04 >=   4.352000000e+04   3.4% (16933; 107701)
+8465566: mip =   4.505600000e+04 >=   4.352000000e+04   3.4% (16413; 110223)
+8490150: mip =   4.505600000e+04 >=   4.353300000e+04   3.4% (16344; 110730)
+8505765: mip =   4.505600000e+04 >=   4.356800000e+04   3.3% (16084; 111803)
+8537815: mip =   4.505600000e+04 >=   4.358500000e+04   3.3% (16158; 111968)
Time used: 1440.2 secs.  Memory used: 187.7 Mb.
+8563327: mip =   4.505600000e+04 >=   4.359400000e+04   3.2% (16236; 112640)
+8573766: mip =   4.505600000e+04 >=   4.359600000e+04   3.2% (15783; 114601)
+8598605: mip =   4.505600000e+04 >=   4.361600000e+04   3.2% (15592; 115533)
+8623080: mip =   4.505600000e+04 >=   4.363300000e+04   3.2% (15589; 116120)
+8644864: mip =   4.505600000e+04 >=   4.365500000e+04   3.1% (15669; 116922)
+8658231: mip =   4.505600000e+04 >=   4.366700000e+04   3.1% (15398; 118278)
+8679741: mip =   4.505600000e+04 >=   4.369800000e+04   3.0% (15438; 119238)
+8687201: mip =   4.505600000e+04 >=   4.370700000e+04   3.0% (14948; 121646)
+8692215: mip =   4.505600000e+04 >=   4.372200000e+04   3.0% (14301; 124498)
+8705457: mip =   4.505600000e+04 >=   4.375300000e+04   2.9% (13905; 125554)
+8720738: mip =   4.505600000e+04 >=   4.378200000e+04   2.8% (13677; 126935)
+8744268: mip =   4.505600000e+04 >=   4.380800000e+04   2.8% (13720; 127527)
Time used: 1500.2 secs.  Memory used: 187.7 Mb.
+8758612: mip =   4.505600000e+04 >=   4.383000000e+04   2.7% (13604; 128605)
+8766067: mip =   4.505600000e+04 >=   4.387100000e+04   2.6% (12995; 131136)
+8792582: mip =   4.505600000e+04 >=   4.387100000e+04   2.6% (13262; 131533)
+8817972: mip =   4.505600000e+04 >=   4.387100000e+04   2.6% (13615; 131918)
+8844921: mip =   4.505600000e+04 >=   4.387100000e+04   2.6% (14026; 132271)
+8870686: mip =   4.505600000e+04 >=   4.387100000e+04   2.6% (14424; 132649)
+8895238: mip =   4.505600000e+04 >=   4.387100000e+04   2.6% (14776; 133061)
+8918814: mip =   4.505600000e+04 >=   4.387100000e+04   2.6% (15129; 133453)
+8944951: mip =   4.505600000e+04 >=   4.387100000e+04   2.6% (15499; 133787)
+8969351: mip =   4.505600000e+04 >=   4.387100000e+04   2.6% (15807; 134128)
+8993132: mip =   4.505600000e+04 >=   4.387100000e+04   2.6% (16153; 134467)
+9018920: mip =   4.505600000e+04 >=   4.387800000e+04   2.6% (16387; 134819)
Time used: 1560.2 secs.  Memory used: 187.7 Mb.
+9044623: mip =   4.505600000e+04 >=   4.387800000e+04   2.6% (16643; 135155)
+9068705: mip =   4.505600000e+04 >=   4.387800000e+04   2.6% (16942; 135507)
+9094310: mip =   4.505600000e+04 >=   4.387800000e+04   2.6% (17216; 135824)
+9120815: mip =   4.505600000e+04 >=   4.387800000e+04   2.6% (17562; 136117)
+9148163: mip =   4.505600000e+04 >=   4.387800000e+04   2.6% (17915; 136393)
+9171761: mip =   4.505600000e+04 >=   4.387800000e+04   2.6% (18235; 136712)
+9198671: mip =   4.505600000e+04 >=   4.387800000e+04   2.6% (18570; 137010)
+9222586: mip =   4.505600000e+04 >=   4.387800000e+04   2.6% (18942; 137302)
+9248095: mip =   4.505600000e+04 >=   4.387800000e+04   2.6% (19317; 137563)
+9274814: mip =   4.505600000e+04 >=   4.387800000e+04   2.6% (19675; 137818)
+9301276: mip =   4.505600000e+04 >=   4.387800000e+04   2.6% (19998; 138082)
+9328309: mip =   4.505600000e+04 >=   4.387800000e+04   2.6% (20378; 138341)
Time used: 1620.2 secs.  Memory used: 188.2 Mb.
+9353225: mip =   4.505600000e+04 >=   4.387800000e+04   2.6% (20733; 138620)
+9378629: mip =   4.505600000e+04 >=   4.387800000e+04   2.6% (21106; 138876)
+9403776: mip =   4.505600000e+04 >=   4.387800000e+04   2.6% (21507; 139133)
+9428367: mip =   4.505600000e+04 >=   4.387800000e+04   2.6% (21830; 139405)
+9453573: mip =   4.505600000e+04 >=   4.387800000e+04   2.6% (22230; 139652)
+9478022: mip =   4.505600000e+04 >=   4.387800000e+04   2.6% (22531; 139920)
+9502738: mip =   4.505600000e+04 >=   4.387800000e+04   2.6% (22863; 140168)
+9525233: mip =   4.505600000e+04 >=   4.387800000e+04   2.6% (23204; 140444)
+9551474: mip =   4.505600000e+04 >=   4.387800000e+04   2.6% (23497; 140682)
+9578303: mip =   4.505600000e+04 >=   4.387800000e+04   2.6% (23772; 140921)
+9602486: mip =   4.505600000e+04 >=   4.387800000e+04   2.6% (24069; 141180)
+9627611: mip =   4.505600000e+04 >=   4.387800000e+04   2.6% (24322; 141430)
Time used: 1680.2 secs.  Memory used: 204.3 Mb.
+9652888: mip =   4.505600000e+04 >=   4.387800000e+04   2.6% (24677; 141667)
+9677585: mip =   4.505600000e+04 >=   4.387800000e+04   2.6% (24970; 141920)
+9702792: mip =   4.505600000e+04 >=   4.387800000e+04   2.6% (25248; 142159)
+9727477: mip =   4.505600000e+04 >=   4.387800000e+04   2.6% (25628; 142405)
+9752590: mip =   4.505600000e+04 >=   4.387800000e+04   2.6% (25963; 142643)
+9778616: mip =   4.505600000e+04 >=   4.387800000e+04   2.6% (26238; 142878)
+9798517: mip =   4.505600000e+04 >=   4.387900000e+04   2.6% (26344; 143193)
+9817157: mip =   4.505600000e+04 >=   4.387900000e+04   2.6% (26476; 143515)
+9834459: mip =   4.505600000e+04 >=   4.388500000e+04   2.6% (26556; 143848)
+9856549: mip =   4.505600000e+04 >=   4.388500000e+04   2.6% (26885; 144112)
+9877541: mip =   4.505600000e+04 >=   4.388700000e+04   2.6% (27257; 144380)
+9896755: mip =   4.505600000e+04 >=   4.388700000e+04   2.6% (27710; 144655)
Time used: 1740.2 secs.  Memory used: 221.5 Mb.
+9917427: mip =   4.505600000e+04 >=   4.388700000e+04   2.6% (28190; 144917)
+9936906: mip =   4.505600000e+04 >=   4.388700000e+04   2.6% (28644; 145186)
+9957360: mip =   4.505600000e+04 >=   4.388700000e+04   2.6% (29094; 145446)
+9976428: mip =   4.505600000e+04 >=   4.388700000e+04   2.6% (29561; 145706)
+9994940: mip =   4.505600000e+04 >=   4.388700000e+04   2.6% (30048; 145973)
+10013789: mip =   4.505600000e+04 >=   4.388700000e+04   2.6% (30521; 146235)
+10038373: mip =   4.505600000e+04 >=   4.390000000e+04   2.6% (30517; 146449)
+10049186: mip =   4.505600000e+04 >=   4.391900000e+04   2.5% (30307; 147548)
+10054366: mip =   4.505600000e+04 >=   4.394800000e+04   2.5% (30004; 148976)
+10060116: mip =   4.505600000e+04 >=   4.394800000e+04   2.5% (29678; 149432)
+10065925: mip =   4.505600000e+04 >=   4.394800000e+04   2.5% (29381; 149904)
+10072279: mip =   4.505600000e+04 >=   4.394800000e+04   2.5% (29088; 150397)
